Si
10.94
  1.00  0.00  0.00
  0.00  1.00  0.00
  0.00  0.00  1.00
64 
Direct(64) 
   0.00000000000000   0.00000000000000   0.00000000000000 
   0.50000000000000   0.00000000000000   0.00000000000000 
   0.00000000000000   0.50000000000000   0.00000000000000 
   0.50000000000000   0.50000000000000   0.00000000000000 
   0.00000000000000   0.00000000000000   0.50000000000000 
   0.50000000000000   0.00000000000000   0.50000000000000 
   0.00000000000000   0.50000000000000   0.50000000000000 
   0.50000000000000   0.50000000000000   0.50000000000000 
   0.00000000000000   0.25000000000000   0.25000000000000 
   0.50000000000000   0.25000000000000   0.25000000000000 
   0.00000000000000   0.75000000000000   0.25000000000000 
   0.50000000000000   0.75000000000000   0.25000000000000 
   0.00000000000000   0.25000000000000   0.75000000000000 
   0.50000000000000   0.25000000000000   0.75000000000000 
   0.00000000000000   0.75000000000000   0.75000000000000 
   0.50000000000000   0.75000000000000   0.75000000000000 
   0.25000000000000   0.00000000000000   0.25000000000000 
   0.75000000000000   0.00000000000000   0.25000000000000 
   0.25000000000000   0.50000000000000   0.25000000000000 
   0.75000000000000   0.50000000000000   0.25000000000000 
   0.25000000000000   0.00000000000000   0.75000000000000 
   0.75000000000000   0.00000000000000   0.75000000000000 
   0.25000000000000   0.50000000000000   0.75000000000000 
   0.75000000000000   0.50000000000000   0.75000000000000 
   0.25000000000000   0.25000000000000   0.00000000000000 
   0.75000000000000   0.25000000000000   0.00000000000000 
   0.25000000000000   0.75000000000000   0.00000000000000 
   0.75000000000000   0.75000000000000   0.00000000000000 
   0.25000000000000   0.25000000000000   0.50000000000000 
   0.75000000000000   0.25000000000000   0.50000000000000 
   0.25000000000000   0.75000000000000   0.50000000000000 
   0.75000000000000   0.75000000000000   0.50000000000000 
   0.12500000000000   0.12500000000000   0.12500000000000 
   0.62500000000000   0.12500000000000   0.12500000000000 
   0.12500000000000   0.62500000000000   0.12500000000000 
   0.62500000000000   0.62500000000000   0.12500000000000 
   0.12500000000000   0.12500000000000   0.62500000000000 
   0.62500000000000   0.12500000000000   0.62500000000000 
   0.12500000000000   0.62500000000000   0.62500000000000 
   0.62500000000000   0.62500000000000   0.62500000000000 
   0.12500000000000   0.37500000000000   0.37500000000000 
   0.62500000000000   0.37500000000000   0.37500000000000 
   0.12500000000000   0.87500000000000   0.37500000000000 
   0.62500000000000   0.87500000000000   0.37500000000000 
   0.12500000000000   0.37500000000000   0.87500000000000 
   0.62500000000000   0.37500000000000   0.87500000000000 
   0.12500000000000   0.87500000000000   0.87500000000000 
   0.62500000000000   0.87500000000000   0.87500000000000 
   0.37500000000000   0.12500000000000   0.37500000000000 
   0.87500000000000   0.12500000000000   0.37500000000000 
   0.37500000000000   0.62500000000000   0.37500000000000 
   0.87500000000000   0.62500000000000   0.37500000000000 
   0.37500000000000   0.12500000000000   0.87500000000000 
   0.87500000000000   0.12500000000000   0.87500000000000 
   0.37500000000000   0.62500000000000   0.87500000000000 
   0.87500000000000   0.62500000000000   0.87500000000000 
   0.37500000000000   0.37500000000000   0.12500000000000 
   0.87500000000000   0.37500000000000   0.12500000000000 
   0.37500000000000   0.87500000000000   0.12500000000000 
   0.87500000000000   0.87500000000000   0.12500000000000 
   0.37500000000000   0.37500000000000   0.62500000000000 
   0.87500000000000   0.37500000000000   0.62500000000000 
   0.37500000000000   0.87500000000000   0.62500000000000 
   0.87500000000000   0.87500000000000   0.62500000000000 
